19:29:37 | INFO    | Run started | run_id: SR_SV_WT_case3_P5_eps84 | log file: C:\Users\Asus\Documents\GitHub\logistics-model2\internal-logistics-model2\results\SR_SV_WT\case3\SR_SV_WT_case3_P5_eps84_2026_05_06_19_29.log
19:29:37 | INFO    | Products loaded | sheet=case3 | rows=15
19:29:37 | INFO    | Data loaded | |N|=31 |Nw|=30 |K|=1 |R|=1 |P|=5 | U=30
19:29:37 | INFO    | Big-M | time=491.0 precedence=480.0 wait=465.0 load_lb=20 load_ub=20
19:29:37 | INFO    | Set parameter Username
19:29:37 | INFO    | Set parameter LicenseID to value 2811848
19:29:37 | INFO    | Academic license - for non-commercial use only - expires 2027-04-22
19:29:37 | INFO    | Objective set | primary: min total_wait | tie-break weight on route_duration: 0.001
19:29:37 | INFO    | Constraint (3) added | route_duration <= 84
19:29:37 | INFO    | Constraints (4)-(9) added | route structure
19:29:37 | INFO    | Constraints (10)-(12) added | product assignment
19:29:37 | INFO    | Constraints (13)-(15) added | route timing
19:29:37 | INFO    | Constraints (16) added | time consistency
19:29:37 | INFO    | Constraints (17)-(19) added | service times
19:29:37 | INFO    | Constraints (20)-(22) added | precedence, route closure, waiting
19:29:37 | INFO    | Constraints (23)-(27) added | load propagation
19:29:37 | INFO    | Constraints (28)-(32) added | MTZ and route ordering
19:29:37 | INFO    | Set parameter TimeLimit to value 600
19:29:37 | INFO    | Set parameter MIPGap to value 0.01
19:29:37 | INFO    | Set parameter Presolve to value 2
19:29:37 | INFO    | Set parameter LogFile to value "C:\Users\Asus\Documents\GitHub\logistics-model2\internal-logistics-model2\results\SR_SV_WT\case3\result_SR_SV_WT_case3_P5_eps84_2026_05_06_19_29.log"
19:29:37 | INFO    | Solver configured | TimeLimit=600s | MIPGap=0.01 | gurobi_log=C:\Users\Asus\Documents\GitHub\logistics-model2\internal-logistics-model2\results\SR_SV_WT\case3\result_SR_SV_WT_case3_P5_eps84_2026_05_06_19_29.log
19:29:37 | INFO    | Optimization starting...
19:29:37 | INFO    | Gurobi Optimizer version 12.0.0 build v12.0.0rc1 (win64 - Windows 10.0 (19045.2))
19:29:37 | INFO    | 
19:29:37 | INFO    | CPU model: 12th Gen Intel(R) Core(TM) i7-12650H, instruction set [SSE2|AVX|AVX2]
19:29:37 | INFO    | Thread count: 10 physical cores, 16 logical processors, using up to 16 threads
19:29:37 | INFO    | 
19:29:37 | INFO    | Non-default parameters:
19:29:37 | INFO    | TimeLimit  600
19:29:37 | INFO    | MIPGap  0.01
19:29:37 | INFO    | Presolve  2
19:29:37 | INFO    | 
19:29:37 | INFO    | Optimize a model with 3852 rows, 1123 columns and 19430 nonzeros
19:29:37 | INFO    | Model fingerprint: 0xcffb5bb2
19:29:37 | INFO    | Variable types: 158 continuous, 965 integer (935 binary)
19:29:37 | INFO    | Coefficient statistics:
19:29:37 | INFO    |   Matrix range     [1e+00, 5e+02]
19:29:37 | INFO    |   Objective range  [1e-03, 1e+00]
19:29:37 | INFO    |   Bounds range     [1e+00, 3e+01]
19:29:37 | INFO    |   RHS range        [1e+00, 5e+02]
19:29:37 | INFO    | Presolve removed 3659 rows and 1042 columns
19:29:37 | INFO    | Presolve time: 0.01s
19:29:37 | INFO    | Presolved: 193 rows, 81 columns, 888 nonzeros
19:29:37 | INFO    | Variable types: 23 continuous, 58 integer (51 binary)
19:29:37 | INFO    | Root relaxation presolve removed 1 rows and 0 columns
19:29:37 | INFO    | Root relaxation presolved: 192 rows, 81 columns, 881 nonzeros
19:29:37 | INFO    | 
19:29:37 | INFO    | 
19:29:37 | INFO    | Root relaxation: objective 8.600000e+01, 35 iterations, 0.00 seconds (0.00 work units)
19:29:37 | INFO    | 
19:29:37 | INFO    |     Nodes    |    Current Node    |     Objective Bounds      |     Work
19:29:37 | INFO    |  Expl Unexpl |  Obj  Depth IntInf | Incumbent    BestBd   Gap | It/Node Time
19:29:37 | INFO    | 
19:29:37 | INFO    |      0     0   86.00000    0   14          -   86.00000      -     -    0s
19:29:37 | INFO    |      0     0   86.06900    0   11          -   86.06900      -     -    0s
19:29:37 | INFO    |      0     0   86.30619    0   25          -   86.30619      -     -    0s
19:29:37 | INFO    |      0     0  105.50529    0   25          -  105.50529      -     -    0s
19:29:37 | INFO    |      0     0  106.64012    0   23          -  106.64012      -     -    0s
19:29:37 | INFO    |      0     0  111.51471    0   19          -  111.51471      -     -    0s
19:29:37 | INFO    |      0     0  112.00956    0   22          -  112.00956      -     -    0s
19:29:37 | INFO    |      0     0  112.04227    0   27          -  112.04227      -     -    0s
19:29:37 | INFO    |      0     0  113.95584    0   21          -  113.95584      -     -    0s
19:29:37 | INFO    |      0     0  114.14520    0   23          -  114.14520      -     -    0s
19:29:37 | INFO    |      0     0  114.14520    0   23          -  114.14520      -     -    0s
19:29:37 | INFO    |      0     0  114.70708    0   25          -  114.70708      -     -    0s
19:29:37 | INFO    |      0     0  114.89268    0   15          -  114.89268      -     -    0s
19:29:37 | INFO    |      0     0  114.89268    0   18          -  114.89268      -     -    0s
19:29:37 | INFO    |      0     0  115.04560    0   22          -  115.04560      -     -    0s
19:29:37 | INFO    |      0     0  116.06912    0   12          -  116.06912      -     -    0s
19:29:37 | INFO    |      0     0  116.06912    0   10          -  116.06912      -     -    0s
19:29:37 | INFO    |      0     0  116.07501    0   26          -  116.07501      -     -    0s
19:29:37 | INFO    |      0     0  116.07526    0    7          -  116.07526      -     -    0s
19:29:37 | INFO    |      0     0  116.07550    0   26          -  116.07550      -     -    0s
19:29:37 | INFO    |      0     0  116.07550    0   26          -  116.07550      -     -    0s
19:29:37 | INFO    |      0     0  116.07562    0   26          -  116.07562      -     -    0s
19:29:37 | INFO    |      0     0  116.07562    0   22          -  116.07562      -     -    0s
19:29:37 | INFO    |      0     2  116.07591    0   22          -  116.07591      -     -    0s
19:29:37 | INFO    | 
19:29:37 | INFO    | Cutting planes:
19:29:37 | INFO    |   Learned: 1
19:29:37 | INFO    |   Implied bound: 8
19:29:37 | INFO    |   MIR: 29
19:29:37 | INFO    |   RLT: 1
19:29:37 | INFO    |   Relax-and-lift: 5
19:29:37 | INFO    | 
19:29:37 | INFO    | Explored 1138 nodes (8620 simplex iterations) in 0.11 seconds (0.08 work units)
19:29:37 | INFO    | Thread count was 16 (of 16 available processors)
19:29:37 | INFO    | 
19:29:37 | INFO    | Solution count 0
19:29:37 | INFO    | 
19:29:37 | INFO    | Model is infeasible
19:29:37 | INFO    | Best objective -, best bound -, gap -
19:29:37 | ERROR   | Model is INFEASIBLE — computing IIS
19:29:37 | INFO    | Gurobi Optimizer version 12.0.0 build v12.0.0rc1 (win64 - Windows 10.0 (19045.2))
19:29:37 | INFO    | 
19:29:37 | INFO    | CPU model: 12th Gen Intel(R) Core(TM) i7-12650H, instruction set [SSE2|AVX|AVX2]
19:29:37 | INFO    | Thread count: 10 physical cores, 16 logical processors, using up to 16 threads
19:29:37 | INFO    | 
19:29:37 | INFO    | Non-default parameters:
19:29:37 | INFO    | TimeLimit  600
19:29:37 | INFO    | MIPGap  0.01
19:29:37 | INFO    | Presolve  2
19:29:37 | INFO    | 
19:29:37 | INFO    | 
19:29:37 | INFO    | Computing Irreducible Inconsistent Subsystem (IIS)...
19:29:37 | INFO    | 
19:29:37 | INFO    |            Constraints          |            Bounds           |  Runtime
19:29:37 | INFO    |       Min       Max     Guess   |   Min       Max     Guess   |
19:29:37 | INFO    | --------------------------------------------------------------------------
19:29:37 | INFO    |         0      3852         -         0       188         -           0s
19:29:42 | INFO    |        32      3418       109         0       172         -           5s
19:29:43 | INFO    |        33      3418         -         0       172         -           5s
19:29:43 | INFO    | 
19:29:43 | INFO    | Non-minimal IIS computed: 3418 constraints, 172 bounds
19:29:43 | INFO    | IIS runtime: 5.22 seconds (5.32 work units)
19:29:43 | ERROR   | IIS written | C:\Users\Asus\Documents\GitHub\logistics-model2\internal-logistics-model2\results\SR_SV_WT\case3\infeasible_SR_SV_WT_case3_P5_eps84_2026_05_06_19_29.ilp
19:29:43 | INFO    | Run complete | run_id=SR_SV_WT_case3_P5_eps84
